
(define-fun notBelow ( (current_counter Int) (current__step Int) (current__state Int)) Bool (> current_counter (- 25)))
(define-fun notAbove ( (current_counter Int) (current__step Int) (current__state Int)) Bool (< current_counter 25))
(define-fun dec1 ( (param_decWith Int) (param__toState Int) (current_counter Int) (current__step Int) (current__state Int) (next_counter Int) (next__step Int) (next__state Int)) Bool (and (and (and (and (and (and (and (> param_decWith 0) (< param_decWith 2)) (and (= current__state 1) (= param__toState 1))) ) (= (- next_counter current_counter) (- param_decWith))) (= next__step 2)) ) (= next__state param__toState)))
(define-fun init ( (param__toState Int) (current_counter Int) (current__step Int) (current__state Int) (next_counter Int) (next__step Int) (next__state Int)) Bool (and (and (and (and (and (= param__toState 1) ) (= next_counter 0)) (= next__step 1)) ) (= next__state param__toState)))
(define-fun inc1 ( (param_incWith Int) (param__toState Int) (current_counter Int) (current__step Int) (current__state Int) (next_counter Int) (next__step Int) (next__state Int)) Bool (and (and (and (and (and (and (and (> param_incWith 0) (< param_incWith 2)) (and (= current__state 1) (= param__toState 1))) ) (= (- next_counter current_counter) param_incWith)) (= next__step 3)) ) (= next__state param__toState)))
(declare-const spec_counter_0 Int)
(declare-const spec_counter_1 Int)
(declare-const spec_counter_2 Int)
(declare-const spec_counter_3 Int)
(declare-const spec_counter_4 Int)
(declare-const spec_counter_5 Int)
(declare-const spec_counter_6 Int)
(declare-const spec_counter_7 Int)
(declare-const spec_counter_8 Int)
(declare-const spec_counter_9 Int)
(declare-const spec_counter_10 Int)
(declare-const spec_counter_11 Int)
(declare-const spec_counter_12 Int)
(declare-const spec_counter_13 Int)
(declare-const spec_counter_14 Int)
(declare-const spec_counter_15 Int)
(declare-const spec_counter_16 Int)
(declare-const spec_counter_17 Int)
(declare-const spec_counter_18 Int)
(declare-const spec_counter_19 Int)
(declare-const spec_counter_20 Int)
(declare-const spec_counter_21 Int)
(declare-const spec_counter_22 Int)
(declare-const spec_counter_23 Int)
(declare-const spec_counter_24 Int)
(declare-const spec_counter_25 Int)
(declare-const spec__step_0 Int)
(declare-const spec__step_1 Int)
(declare-const spec__step_2 Int)
(declare-const spec__step_3 Int)
(declare-const spec__step_4 Int)
(declare-const spec__step_5 Int)
(declare-const spec__step_6 Int)
(declare-const spec__step_7 Int)
(declare-const spec__step_8 Int)
(declare-const spec__step_9 Int)
(declare-const spec__step_10 Int)
(declare-const spec__step_11 Int)
(declare-const spec__step_12 Int)
(declare-const spec__step_13 Int)
(declare-const spec__step_14 Int)
(declare-const spec__step_15 Int)
(declare-const spec__step_16 Int)
(declare-const spec__step_17 Int)
(declare-const spec__step_18 Int)
(declare-const spec__step_19 Int)
(declare-const spec__step_20 Int)
(declare-const spec__step_21 Int)
(declare-const spec__step_22 Int)
(declare-const spec__step_23 Int)
(declare-const spec__step_24 Int)
(declare-const spec__step_25 Int)
(declare-const spec__state_0 Int)
(declare-const spec__state_1 Int)
(declare-const spec__state_2 Int)
(declare-const spec__state_3 Int)
(declare-const spec__state_4 Int)
(declare-const spec__state_5 Int)
(declare-const spec__state_6 Int)
(declare-const spec__state_7 Int)
(declare-const spec__state_8 Int)
(declare-const spec__state_9 Int)
(declare-const spec__state_10 Int)
(declare-const spec__state_11 Int)
(declare-const spec__state_12 Int)
(declare-const spec__state_13 Int)
(declare-const spec__state_14 Int)
(declare-const spec__state_15 Int)
(declare-const spec__state_16 Int)
(declare-const spec__state_17 Int)
(declare-const spec__state_18 Int)
(declare-const spec__state_19 Int)
(declare-const spec__state_20 Int)
(declare-const spec__state_21 Int)
(declare-const spec__state_22 Int)
(declare-const spec__state_23 Int)
(declare-const spec__state_24 Int)
(declare-const spec__state_25 Int)
(declare-const event_dec1_decWith_0 Int)
(declare-const event_dec1_decWith_1 Int)
(declare-const event_dec1_decWith_2 Int)
(declare-const event_dec1_decWith_3 Int)
(declare-const event_dec1_decWith_4 Int)
(declare-const event_dec1_decWith_5 Int)
(declare-const event_dec1_decWith_6 Int)
(declare-const event_dec1_decWith_7 Int)
(declare-const event_dec1_decWith_8 Int)
(declare-const event_dec1_decWith_9 Int)
(declare-const event_dec1_decWith_10 Int)
(declare-const event_dec1_decWith_11 Int)
(declare-const event_dec1_decWith_12 Int)
(declare-const event_dec1_decWith_13 Int)
(declare-const event_dec1_decWith_14 Int)
(declare-const event_dec1_decWith_15 Int)
(declare-const event_dec1_decWith_16 Int)
(declare-const event_dec1_decWith_17 Int)
(declare-const event_dec1_decWith_18 Int)
(declare-const event_dec1_decWith_19 Int)
(declare-const event_dec1_decWith_20 Int)
(declare-const event_dec1_decWith_21 Int)
(declare-const event_dec1_decWith_22 Int)
(declare-const event_dec1_decWith_23 Int)
(declare-const event_dec1_decWith_24 Int)
(declare-const event_dec1__toState_0 Int)
(declare-const event_dec1__toState_1 Int)
(declare-const event_dec1__toState_2 Int)
(declare-const event_dec1__toState_3 Int)
(declare-const event_dec1__toState_4 Int)
(declare-const event_dec1__toState_5 Int)
(declare-const event_dec1__toState_6 Int)
(declare-const event_dec1__toState_7 Int)
(declare-const event_dec1__toState_8 Int)
(declare-const event_dec1__toState_9 Int)
(declare-const event_dec1__toState_10 Int)
(declare-const event_dec1__toState_11 Int)
(declare-const event_dec1__toState_12 Int)
(declare-const event_dec1__toState_13 Int)
(declare-const event_dec1__toState_14 Int)
(declare-const event_dec1__toState_15 Int)
(declare-const event_dec1__toState_16 Int)
(declare-const event_dec1__toState_17 Int)
(declare-const event_dec1__toState_18 Int)
(declare-const event_dec1__toState_19 Int)
(declare-const event_dec1__toState_20 Int)
(declare-const event_dec1__toState_21 Int)
(declare-const event_dec1__toState_22 Int)
(declare-const event_dec1__toState_23 Int)
(declare-const event_dec1__toState_24 Int)
(declare-const event_init__toState_0 Int)
(declare-const event_init__toState_1 Int)
(declare-const event_init__toState_2 Int)
(declare-const event_init__toState_3 Int)
(declare-const event_init__toState_4 Int)
(declare-const event_init__toState_5 Int)
(declare-const event_init__toState_6 Int)
(declare-const event_init__toState_7 Int)
(declare-const event_init__toState_8 Int)
(declare-const event_init__toState_9 Int)
(declare-const event_init__toState_10 Int)
(declare-const event_init__toState_11 Int)
(declare-const event_init__toState_12 Int)
(declare-const event_init__toState_13 Int)
(declare-const event_init__toState_14 Int)
(declare-const event_init__toState_15 Int)
(declare-const event_init__toState_16 Int)
(declare-const event_init__toState_17 Int)
(declare-const event_init__toState_18 Int)
(declare-const event_init__toState_19 Int)
(declare-const event_init__toState_20 Int)
(declare-const event_init__toState_21 Int)
(declare-const event_init__toState_22 Int)
(declare-const event_init__toState_23 Int)
(declare-const event_init__toState_24 Int)
(declare-const event_inc1_incWith_0 Int)
(declare-const event_inc1_incWith_1 Int)
(declare-const event_inc1_incWith_2 Int)
(declare-const event_inc1_incWith_3 Int)
(declare-const event_inc1_incWith_4 Int)
(declare-const event_inc1_incWith_5 Int)
(declare-const event_inc1_incWith_6 Int)
(declare-const event_inc1_incWith_7 Int)
(declare-const event_inc1_incWith_8 Int)
(declare-const event_inc1_incWith_9 Int)
(declare-const event_inc1_incWith_10 Int)
(declare-const event_inc1_incWith_11 Int)
(declare-const event_inc1_incWith_12 Int)
(declare-const event_inc1_incWith_13 Int)
(declare-const event_inc1_incWith_14 Int)
(declare-const event_inc1_incWith_15 Int)
(declare-const event_inc1_incWith_16 Int)
(declare-const event_inc1_incWith_17 Int)
(declare-const event_inc1_incWith_18 Int)
(declare-const event_inc1_incWith_19 Int)
(declare-const event_inc1_incWith_20 Int)
(declare-const event_inc1_incWith_21 Int)
(declare-const event_inc1_incWith_22 Int)
(declare-const event_inc1_incWith_23 Int)
(declare-const event_inc1_incWith_24 Int)
(declare-const event_inc1__toState_0 Int)
(declare-const event_inc1__toState_1 Int)
(declare-const event_inc1__toState_2 Int)
(declare-const event_inc1__toState_3 Int)
(declare-const event_inc1__toState_4 Int)
(declare-const event_inc1__toState_5 Int)
(declare-const event_inc1__toState_6 Int)
(declare-const event_inc1__toState_7 Int)
(declare-const event_inc1__toState_8 Int)
(declare-const event_inc1__toState_9 Int)
(declare-const event_inc1__toState_10 Int)
(declare-const event_inc1__toState_11 Int)
(declare-const event_inc1__toState_12 Int)
(declare-const event_inc1__toState_13 Int)
(declare-const event_inc1__toState_14 Int)
(declare-const event_inc1__toState_15 Int)
(declare-const event_inc1__toState_16 Int)
(declare-const event_inc1__toState_17 Int)
(declare-const event_inc1__toState_18 Int)
(declare-const event_inc1__toState_19 Int)
(declare-const event_inc1__toState_20 Int)
(declare-const event_inc1__toState_21 Int)
(declare-const event_inc1__toState_22 Int)
(declare-const event_inc1__toState_23 Int)
(declare-const event_inc1__toState_24 Int)
(assert (= spec_counter_0 999))
(assert (= spec__step_0 999))
(assert (= spec__state_0 999))
(assert (and (or (or (dec1  event_dec1_decWith_0 event_dec1__toState_0 spec_counter_0 spec__step_0 spec__state_0 spec_counter_1 spec__step_1 spec__state_1) (init  event_init__toState_0 spec_counter_0 spec__step_0 spec__state_0 spec_counter_1 spec__step_1 spec__state_1)) (inc1  event_inc1_incWith_0 event_inc1__toState_0 spec_counter_0 spec__step_0 spec__state_0 spec_counter_1 spec__step_1 spec__state_1)) (and (notBelow  spec_counter_1 spec__step_1 spec__state_1) (notAbove  spec_counter_1 spec__step_1 spec__state_1))))
(assert (and (or (or (dec1  event_dec1_decWith_1 event_dec1__toState_1 spec_counter_1 spec__step_1 spec__state_1 spec_counter_2 spec__step_2 spec__state_2) (init  event_init__toState_1 spec_counter_1 spec__step_1 spec__state_1 spec_counter_2 spec__step_2 spec__state_2)) (inc1  event_inc1_incWith_1 event_inc1__toState_1 spec_counter_1 spec__step_1 spec__state_1 spec_counter_2 spec__step_2 spec__state_2)) (and (notBelow  spec_counter_2 spec__step_2 spec__state_2) (notAbove  spec_counter_2 spec__step_2 spec__state_2))))
(assert (and (or (or (dec1  event_dec1_decWith_2 event_dec1__toState_2 spec_counter_2 spec__step_2 spec__state_2 spec_counter_3 spec__step_3 spec__state_3) (init  event_init__toState_2 spec_counter_2 spec__step_2 spec__state_2 spec_counter_3 spec__step_3 spec__state_3)) (inc1  event_inc1_incWith_2 event_inc1__toState_2 spec_counter_2 spec__step_2 spec__state_2 spec_counter_3 spec__step_3 spec__state_3)) (and (notBelow  spec_counter_3 spec__step_3 spec__state_3) (notAbove  spec_counter_3 spec__step_3 spec__state_3))))
(assert (and (or (or (dec1  event_dec1_decWith_3 event_dec1__toState_3 spec_counter_3 spec__step_3 spec__state_3 spec_counter_4 spec__step_4 spec__state_4) (init  event_init__toState_3 spec_counter_3 spec__step_3 spec__state_3 spec_counter_4 spec__step_4 spec__state_4)) (inc1  event_inc1_incWith_3 event_inc1__toState_3 spec_counter_3 spec__step_3 spec__state_3 spec_counter_4 spec__step_4 spec__state_4)) (and (notBelow  spec_counter_4 spec__step_4 spec__state_4) (notAbove  spec_counter_4 spec__step_4 spec__state_4))))
(assert (and (or (or (dec1  event_dec1_decWith_4 event_dec1__toState_4 spec_counter_4 spec__step_4 spec__state_4 spec_counter_5 spec__step_5 spec__state_5) (init  event_init__toState_4 spec_counter_4 spec__step_4 spec__state_4 spec_counter_5 spec__step_5 spec__state_5)) (inc1  event_inc1_incWith_4 event_inc1__toState_4 spec_counter_4 spec__step_4 spec__state_4 spec_counter_5 spec__step_5 spec__state_5)) (and (notBelow  spec_counter_5 spec__step_5 spec__state_5) (notAbove  spec_counter_5 spec__step_5 spec__state_5))))
(assert (and (or (or (dec1  event_dec1_decWith_5 event_dec1__toState_5 spec_counter_5 spec__step_5 spec__state_5 spec_counter_6 spec__step_6 spec__state_6) (init  event_init__toState_5 spec_counter_5 spec__step_5 spec__state_5 spec_counter_6 spec__step_6 spec__state_6)) (inc1  event_inc1_incWith_5 event_inc1__toState_5 spec_counter_5 spec__step_5 spec__state_5 spec_counter_6 spec__step_6 spec__state_6)) (and (notBelow  spec_counter_6 spec__step_6 spec__state_6) (notAbove  spec_counter_6 spec__step_6 spec__state_6))))
(assert (and (or (or (dec1  event_dec1_decWith_6 event_dec1__toState_6 spec_counter_6 spec__step_6 spec__state_6 spec_counter_7 spec__step_7 spec__state_7) (init  event_init__toState_6 spec_counter_6 spec__step_6 spec__state_6 spec_counter_7 spec__step_7 spec__state_7)) (inc1  event_inc1_incWith_6 event_inc1__toState_6 spec_counter_6 spec__step_6 spec__state_6 spec_counter_7 spec__step_7 spec__state_7)) (and (notBelow  spec_counter_7 spec__step_7 spec__state_7) (notAbove  spec_counter_7 spec__step_7 spec__state_7))))
(assert (and (or (or (dec1  event_dec1_decWith_7 event_dec1__toState_7 spec_counter_7 spec__step_7 spec__state_7 spec_counter_8 spec__step_8 spec__state_8) (init  event_init__toState_7 spec_counter_7 spec__step_7 spec__state_7 spec_counter_8 spec__step_8 spec__state_8)) (inc1  event_inc1_incWith_7 event_inc1__toState_7 spec_counter_7 spec__step_7 spec__state_7 spec_counter_8 spec__step_8 spec__state_8)) (and (notBelow  spec_counter_8 spec__step_8 spec__state_8) (notAbove  spec_counter_8 spec__step_8 spec__state_8))))
(assert (and (or (or (dec1  event_dec1_decWith_8 event_dec1__toState_8 spec_counter_8 spec__step_8 spec__state_8 spec_counter_9 spec__step_9 spec__state_9) (init  event_init__toState_8 spec_counter_8 spec__step_8 spec__state_8 spec_counter_9 spec__step_9 spec__state_9)) (inc1  event_inc1_incWith_8 event_inc1__toState_8 spec_counter_8 spec__step_8 spec__state_8 spec_counter_9 spec__step_9 spec__state_9)) (and (notBelow  spec_counter_9 spec__step_9 spec__state_9) (notAbove  spec_counter_9 spec__step_9 spec__state_9))))
(assert (and (or (or (dec1  event_dec1_decWith_9 event_dec1__toState_9 spec_counter_9 spec__step_9 spec__state_9 spec_counter_10 spec__step_10 spec__state_10) (init  event_init__toState_9 spec_counter_9 spec__step_9 spec__state_9 spec_counter_10 spec__step_10 spec__state_10)) (inc1  event_inc1_incWith_9 event_inc1__toState_9 spec_counter_9 spec__step_9 spec__state_9 spec_counter_10 spec__step_10 spec__state_10)) (and (notBelow  spec_counter_10 spec__step_10 spec__state_10) (notAbove  spec_counter_10 spec__step_10 spec__state_10))))
(assert (and (or (or (dec1  event_dec1_decWith_10 event_dec1__toState_10 spec_counter_10 spec__step_10 spec__state_10 spec_counter_11 spec__step_11 spec__state_11) (init  event_init__toState_10 spec_counter_10 spec__step_10 spec__state_10 spec_counter_11 spec__step_11 spec__state_11)) (inc1  event_inc1_incWith_10 event_inc1__toState_10 spec_counter_10 spec__step_10 spec__state_10 spec_counter_11 spec__step_11 spec__state_11)) (and (notBelow  spec_counter_11 spec__step_11 spec__state_11) (notAbove  spec_counter_11 spec__step_11 spec__state_11))))
(assert (and (or (or (dec1  event_dec1_decWith_11 event_dec1__toState_11 spec_counter_11 spec__step_11 spec__state_11 spec_counter_12 spec__step_12 spec__state_12) (init  event_init__toState_11 spec_counter_11 spec__step_11 spec__state_11 spec_counter_12 spec__step_12 spec__state_12)) (inc1  event_inc1_incWith_11 event_inc1__toState_11 spec_counter_11 spec__step_11 spec__state_11 spec_counter_12 spec__step_12 spec__state_12)) (and (notBelow  spec_counter_12 spec__step_12 spec__state_12) (notAbove  spec_counter_12 spec__step_12 spec__state_12))))
(assert (and (or (or (dec1  event_dec1_decWith_12 event_dec1__toState_12 spec_counter_12 spec__step_12 spec__state_12 spec_counter_13 spec__step_13 spec__state_13) (init  event_init__toState_12 spec_counter_12 spec__step_12 spec__state_12 spec_counter_13 spec__step_13 spec__state_13)) (inc1  event_inc1_incWith_12 event_inc1__toState_12 spec_counter_12 spec__step_12 spec__state_12 spec_counter_13 spec__step_13 spec__state_13)) (and (notBelow  spec_counter_13 spec__step_13 spec__state_13) (notAbove  spec_counter_13 spec__step_13 spec__state_13))))
(assert (and (or (or (dec1  event_dec1_decWith_13 event_dec1__toState_13 spec_counter_13 spec__step_13 spec__state_13 spec_counter_14 spec__step_14 spec__state_14) (init  event_init__toState_13 spec_counter_13 spec__step_13 spec__state_13 spec_counter_14 spec__step_14 spec__state_14)) (inc1  event_inc1_incWith_13 event_inc1__toState_13 spec_counter_13 spec__step_13 spec__state_13 spec_counter_14 spec__step_14 spec__state_14)) (and (notBelow  spec_counter_14 spec__step_14 spec__state_14) (notAbove  spec_counter_14 spec__step_14 spec__state_14))))
(assert (and (or (or (dec1  event_dec1_decWith_14 event_dec1__toState_14 spec_counter_14 spec__step_14 spec__state_14 spec_counter_15 spec__step_15 spec__state_15) (init  event_init__toState_14 spec_counter_14 spec__step_14 spec__state_14 spec_counter_15 spec__step_15 spec__state_15)) (inc1  event_inc1_incWith_14 event_inc1__toState_14 spec_counter_14 spec__step_14 spec__state_14 spec_counter_15 spec__step_15 spec__state_15)) (and (notBelow  spec_counter_15 spec__step_15 spec__state_15) (notAbove  spec_counter_15 spec__step_15 spec__state_15))))
(assert (and (or (or (dec1  event_dec1_decWith_15 event_dec1__toState_15 spec_counter_15 spec__step_15 spec__state_15 spec_counter_16 spec__step_16 spec__state_16) (init  event_init__toState_15 spec_counter_15 spec__step_15 spec__state_15 spec_counter_16 spec__step_16 spec__state_16)) (inc1  event_inc1_incWith_15 event_inc1__toState_15 spec_counter_15 spec__step_15 spec__state_15 spec_counter_16 spec__step_16 spec__state_16)) (and (notBelow  spec_counter_16 spec__step_16 spec__state_16) (notAbove  spec_counter_16 spec__step_16 spec__state_16))))
(assert (and (or (or (dec1  event_dec1_decWith_16 event_dec1__toState_16 spec_counter_16 spec__step_16 spec__state_16 spec_counter_17 spec__step_17 spec__state_17) (init  event_init__toState_16 spec_counter_16 spec__step_16 spec__state_16 spec_counter_17 spec__step_17 spec__state_17)) (inc1  event_inc1_incWith_16 event_inc1__toState_16 spec_counter_16 spec__step_16 spec__state_16 spec_counter_17 spec__step_17 spec__state_17)) (and (notBelow  spec_counter_17 spec__step_17 spec__state_17) (notAbove  spec_counter_17 spec__step_17 spec__state_17))))
(assert (and (or (or (dec1  event_dec1_decWith_17 event_dec1__toState_17 spec_counter_17 spec__step_17 spec__state_17 spec_counter_18 spec__step_18 spec__state_18) (init  event_init__toState_17 spec_counter_17 spec__step_17 spec__state_17 spec_counter_18 spec__step_18 spec__state_18)) (inc1  event_inc1_incWith_17 event_inc1__toState_17 spec_counter_17 spec__step_17 spec__state_17 spec_counter_18 spec__step_18 spec__state_18)) (and (notBelow  spec_counter_18 spec__step_18 spec__state_18) (notAbove  spec_counter_18 spec__step_18 spec__state_18))))
(assert (and (or (or (dec1  event_dec1_decWith_18 event_dec1__toState_18 spec_counter_18 spec__step_18 spec__state_18 spec_counter_19 spec__step_19 spec__state_19) (init  event_init__toState_18 spec_counter_18 spec__step_18 spec__state_18 spec_counter_19 spec__step_19 spec__state_19)) (inc1  event_inc1_incWith_18 event_inc1__toState_18 spec_counter_18 spec__step_18 spec__state_18 spec_counter_19 spec__step_19 spec__state_19)) (and (notBelow  spec_counter_19 spec__step_19 spec__state_19) (notAbove  spec_counter_19 spec__step_19 spec__state_19))))
(assert (and (or (or (dec1  event_dec1_decWith_19 event_dec1__toState_19 spec_counter_19 spec__step_19 spec__state_19 spec_counter_20 spec__step_20 spec__state_20) (init  event_init__toState_19 spec_counter_19 spec__step_19 spec__state_19 spec_counter_20 spec__step_20 spec__state_20)) (inc1  event_inc1_incWith_19 event_inc1__toState_19 spec_counter_19 spec__step_19 spec__state_19 spec_counter_20 spec__step_20 spec__state_20)) (and (notBelow  spec_counter_20 spec__step_20 spec__state_20) (notAbove  spec_counter_20 spec__step_20 spec__state_20))))
(assert (and (or (or (dec1  event_dec1_decWith_20 event_dec1__toState_20 spec_counter_20 spec__step_20 spec__state_20 spec_counter_21 spec__step_21 spec__state_21) (init  event_init__toState_20 spec_counter_20 spec__step_20 spec__state_20 spec_counter_21 spec__step_21 spec__state_21)) (inc1  event_inc1_incWith_20 event_inc1__toState_20 spec_counter_20 spec__step_20 spec__state_20 spec_counter_21 spec__step_21 spec__state_21)) (and (notBelow  spec_counter_21 spec__step_21 spec__state_21) (notAbove  spec_counter_21 spec__step_21 spec__state_21))))
(assert (and (or (or (dec1  event_dec1_decWith_21 event_dec1__toState_21 spec_counter_21 spec__step_21 spec__state_21 spec_counter_22 spec__step_22 spec__state_22) (init  event_init__toState_21 spec_counter_21 spec__step_21 spec__state_21 spec_counter_22 spec__step_22 spec__state_22)) (inc1  event_inc1_incWith_21 event_inc1__toState_21 spec_counter_21 spec__step_21 spec__state_21 spec_counter_22 spec__step_22 spec__state_22)) (and (notBelow  spec_counter_22 spec__step_22 spec__state_22) (notAbove  spec_counter_22 spec__step_22 spec__state_22))))
(assert (and (or (or (dec1  event_dec1_decWith_22 event_dec1__toState_22 spec_counter_22 spec__step_22 spec__state_22 spec_counter_23 spec__step_23 spec__state_23) (init  event_init__toState_22 spec_counter_22 spec__step_22 spec__state_22 spec_counter_23 spec__step_23 spec__state_23)) (inc1  event_inc1_incWith_22 event_inc1__toState_22 spec_counter_22 spec__step_22 spec__state_22 spec_counter_23 spec__step_23 spec__state_23)) (and (notBelow  spec_counter_23 spec__step_23 spec__state_23) (notAbove  spec_counter_23 spec__step_23 spec__state_23))))
(assert (and (or (or (dec1  event_dec1_decWith_23 event_dec1__toState_23 spec_counter_23 spec__step_23 spec__state_23 spec_counter_24 spec__step_24 spec__state_24) (init  event_init__toState_23 spec_counter_23 spec__step_23 spec__state_23 spec_counter_24 spec__step_24 spec__state_24)) (inc1  event_inc1_incWith_23 event_inc1__toState_23 spec_counter_23 spec__step_23 spec__state_23 spec_counter_24 spec__step_24 spec__state_24)) (and (notBelow  spec_counter_24 spec__step_24 spec__state_24) (notAbove  spec_counter_24 spec__step_24 spec__state_24))))
(assert (and (or (or (dec1  event_dec1_decWith_24 event_dec1__toState_24 spec_counter_24 spec__step_24 spec__state_24 spec_counter_25 spec__step_25 spec__state_25) (init  event_init__toState_24 spec_counter_24 spec__step_24 spec__state_24 spec_counter_25 spec__step_25 spec__state_25)) (inc1  event_inc1_incWith_24 event_inc1__toState_24 spec_counter_24 spec__step_24 spec__state_24 spec_counter_25 spec__step_25 spec__state_25)) (not (and (notBelow  spec_counter_25 spec__step_25 spec__state_25) (notAbove  spec_counter_25 spec__step_25 spec__state_25)))))
(check-sat)
(get-value ( spec_counter_0 spec__step_0 spec__state_0 spec_counter_1 spec__step_1 spec__state_1 spec_counter_2 spec__step_2 spec__state_2 spec_counter_3 spec__step_3 spec__state_3 spec_counter_4 spec__step_4 spec__state_4 spec_counter_5 spec__step_5 spec__state_5 spec_counter_6 spec__step_6 spec__state_6 spec_counter_7 spec__step_7 spec__state_7 spec_counter_8 spec__step_8 spec__state_8 spec_counter_9 spec__step_9 spec__state_9 spec_counter_10 spec__step_10 spec__state_10 spec_counter_11 spec__step_11 spec__state_11 spec_counter_12 spec__step_12 spec__state_12 spec_counter_13 spec__step_13 spec__state_13 spec_counter_14 spec__step_14 spec__state_14 spec_counter_15 spec__step_15 spec__state_15 spec_counter_16 spec__step_16 spec__state_16 spec_counter_17 spec__step_17 spec__state_17 spec_counter_18 spec__step_18 spec__state_18 spec_counter_19 spec__step_19 spec__state_19 spec_counter_20 spec__step_20 spec__state_20 spec_counter_21 spec__step_21 spec__state_21 spec_counter_22 spec__step_22 spec__state_22 spec_counter_23 spec__step_23 spec__state_23 spec_counter_24 spec__step_24 spec__state_24 spec_counter_25 spec__step_25 spec__state_25))